certificates/rado_a11_c20_N23.cnf
c Rad2 upper bound instance: x1 + 11*x2 - x3 = 20, interval [1,23]
p cnf 23 90
1 2 3 0
-1 -2 -3 0
1 3 14 0
-1 -3 -14 0
2 4 0
-2 -4 0
2 3 15 0
-2 -3 -15 0
2 3 5 0
-2 -3 -5 0
3 16 0
-3 -16 0
2 4 6 0
-2 -4 -6 0
3 4 17 0
-3 -4 -17 0
2 5 7 0
-2 -5 -7 0
3 5 18 0
-3 -5 -18 0
2 6 8 0
-2 -6 -8 0
3 6 19 0
-3 -6 -19 0
2 7 9 0
-2 -7 -9 0
3 7 20 0
-3 -7 -20 0
2 8 10 0
-2 -8 -10 0
3 8 21 0
-3 -8 -21 0
2 9 11 0
-2 -9 -11 0
3 9 22 0
-3 -9 -22 0
1 10 0
-1 -10 0
2 10 12 0
-2 -10 -12 0
3 10 23 0
-3 -10 -23 0
1 2 11 0
-1 -2 -11 0
2 11 13 0
-2 -11 -13 0
1 3 12 0
-1 -3 -12 0
2 12 14 0
-2 -12 -14 0
1 4 13 0
-1 -4 -13 0
2 13 15 0
-2 -13 -15 0
1 5 14 0
-1 -5 -14 0
2 14 16 0
-2 -14 -16 0
1 6 15 0
-1 -6 -15 0
2 15 17 0
-2 -15 -17 0
1 7 16 0
-1 -7 -16 0
2 16 18 0
-2 -16 -18 0
1 8 17 0
-1 -8 -17 0
2 17 19 0
-2 -17 -19 0
1 9 18 0
-1 -9 -18 0
2 18 20 0
-2 -18 -20 0
1 10 19 0
-1 -10 -19 0
2 19 21 0
-2 -19 -21 0
1 11 20 0
-1 -11 -20 0
2 20 22 0
-2 -20 -22 0
1 12 21 0
-1 -12 -21 0
2 21 23 0
-2 -21 -23 0
1 13 22 0
-1 -13 -22 0
1 14 23 0
-1 -14 -23 0
