certificates/rado_a11_c20_N23.drat
-17 2 0
8 2 0
-21 -23 0
d -21 -2 -23 0
-1 2 -22 -23 0
2 -22 -23 0
d -1 2 -22 -23 0
-8 -2 0
-2 -23 0
1 -23 0
-23 0
2 0
-4 0
-8 0
-1 0
10 0
14 0
13 0
17 0
-12 0
-16 0
-15 0
-11 0
-19 0
21 0
3 0
7 0
6 0
20 0
0
